Gurobi Optimizer version 9.1.2 build v9.1.2rc0 (linux64)
Thread count: 36 physical cores, 72 logical processors, using up to 32 threads
Optimize a model with 12 rows, 57 columns and 590 nonzeros
Model fingerprint: 0xf32eec78
Model has 47 quadratic constraints
Coefficient statistics:
  Matrix range     [2e-05, 3e+00]
  QMatrix range    [1e+00, 1e+00]
  QLMatrix range   [1e+00, 1e+00]
  Objective range  [8e-03, 7e-01]
  Bounds range     [1e+00, 1e+00]
  RHS range        [1e+00, 1e+00]
Presolve removed 9 rows and 0 columns

Continuous model is non-convex -- solving as a MIP.

Presolve removed 9 rows and 0 columns
Presolve time: 0.00s
Presolved: 189 rows, 57 columns, 443 nonzeros
Presolved model has 47 bilinear constraint(s)
Variable types: 57 continuous, 0 integer (0 binary)

Root relaxation: objective -1.743721e+00, 44 iterations, 0.00 seconds

    Nodes    |    Current Node    |     Objective Bounds      |     Work
 Expl Unexpl |  Obj  Depth IntInf | Incumbent    BestBd   Gap | It/Node Time

     0     0   -1.74372    0   38          -   -1.74372      -     -    0s
H    0     0                       0.6147548   -1.74372   384%     -    0s
     0     0   -1.64739    0    1    0.61475   -1.64739   368%     -    0s
H    0     0                      -1.6450460   -1.64739  0.14%     -    0s
     0     0     cutoff    0        -1.64505   -1.64505  0.00%     -    0s

Cutting planes:
  RLT: 25
  BQP: 3

Explored 1 nodes (76 simplex iterations) in 0.01 seconds
Thread count was 32 (of 72 available processors)

Solution count 2: -1.64505 0.614755 
No other solutions better than -1.64505

Optimal solution found (tolerance 1.00e-04)
Best objective -1.645045978473e+00, best bound -1.645045978473e+00, gap 0.0000%

User-callback calls 78, time in user-callback 0.00 sec
Gurobi Optimizer version 9.1.2 build v9.1.2rc0 (linux64)
Thread count: 36 physical cores, 72 logical processors, using up to 32 threads
Optimize a model with 24 rows, 125 columns and 2580 nonzeros
Model fingerprint: 0x156d3b84
Model has 105 quadratic constraints
Coefficient statistics:
  Matrix range     [4e-06, 5e+01]
  QMatrix range    [1e+00, 1e+00]
  QLMatrix range   [1e+00, 1e+00]
  Objective range  [2e-02, 2e+00]
  Bounds range     [1e+00, 1e+00]
  RHS range        [1e+00, 1e+00]
Presolve removed 10 rows and 0 columns

Continuous model is non-convex -- solving as a MIP.

Presolve removed 10 rows and 0 columns
Presolve time: 0.00s
Presolved: 429 rows, 125 columns, 2142 nonzeros
Presolved model has 105 bilinear constraint(s)
Variable types: 125 continuous, 0 integer (0 binary)

Root relaxation: objective -8.710919e+00, 120 iterations, 0.00 seconds

    Nodes    |    Current Node    |     Objective Bounds      |     Work
 Expl Unexpl |  Obj  Depth IntInf | Incumbent    BestBd   Gap | It/Node Time

     0     0   -8.71092    0   57          -   -8.71092      -     -    0s
H    0     0                      -0.5924629   -8.71092  1370%     -    0s
     0     0   -6.70610    0   95   -0.59246   -6.70610  1032%     -    0s
H    0     0                      -1.8960218   -6.70610   254%     -    0s
     0     0   -6.63946    0   95   -1.89602   -6.63946   250%     -    0s
     0     0   -6.29938    0   70   -1.89602   -6.29938   232%     -    0s
H    0     0                      -2.3806241   -6.29938   165%     -    0s
     0     0   -6.28843    0   70   -2.38062   -6.28843   164%     -    0s
     0     0   -6.23501    0   70   -2.38062   -6.23501   162%     -    0s
     0     0   -6.23391    0   70   -2.38062   -6.23391   162%     -    0s
     0     0   -6.17597    0   70   -2.38062   -6.17597   159%     -    0s
     0     0   -6.17447    0   70   -2.38062   -6.17447   159%     -    0s
     0     0   -6.17254    0   70   -2.38062   -6.17254   159%     -    0s
H    0     0                      -2.5024789   -6.17254   147%     -    0s
     0     0   -6.17082    0   70   -2.50248   -6.17082   147%     -    0s
     0     0   -6.16916    0   70   -2.50248   -6.16916   147%     -    0s
H    0     0                      -2.6169157   -6.16916   136%     -    0s
H    0     0                      -4.2555376   -6.16916  45.0%     -    0s
H    0     0                      -4.3707973   -6.16916  41.1%     -    0s
H    0     0                      -4.4527469   -6.16916  38.5%     -    0s
H    0     0                      -4.6090482   -6.16916  33.8%     -    0s
     0     2   -6.16916    0   70   -4.60905   -6.16916  33.8%     -    0s
*  549   388              20      -4.9000805   -5.55276  13.3%  35.7    0s
*  793   426              20      -5.0751881   -5.45818  7.55%  29.2    0s
*  805   426              28      -5.1257065   -5.45818  6.49%  29.0    0s
* 1094   534              24      -5.1424773   -5.33271  3.70%  24.2    0s
* 1095   534              24      -5.1424778   -5.33271  3.70%  24.2    0s
* 1097   534              22      -5.1649703   -5.33271  3.25%  24.1    0s
* 1193   534              18      -5.1709005   -5.33271  3.13%  22.8    0s
* 1403   412              17      -5.1711146   -5.28065  2.12%  20.1    0s
* 1410   412              16      -5.1765320   -5.28065  2.01%  20.0    0s
* 1411   412              16      -5.1765326   -5.28065  2.01%  20.0    0s
* 1542   307              18      -5.1781367   -5.28065  1.98%  18.5    0s
* 1553   307              20      -5.1888890   -5.28065  1.77%  18.4    0s
* 1880   176              23      -5.1911713   -5.21430  0.45%  15.6    0s
* 1882   176              24      -5.1911809   -5.21430  0.45%  15.6    0s
* 1883   176              24      -5.1911818   -5.21430  0.45%  15.6    0s
* 1885   176              23      -5.1913539   -5.21430  0.44%  15.6    0s
* 1932   176              21      -5.1931909   -5.20000  0.13%  15.3    0s
* 1945   176              23      -5.1932772   -5.19807  0.09%  15.2    0s
* 2183    47              18      -5.1937833   -5.19807  0.08%  13.8    0s
* 2185    47              19      -5.1938422   -5.19807  0.08%  13.7    0s
* 2190    47              20      -5.1939545   -5.19807  0.08%  13.7    0s
* 2191    47              20      -5.1939594   -5.19807  0.08%  13.7    0s
* 2211    47              17      -5.1943281   -5.19807  0.07%  13.6    0s
* 2219    47              17      -5.1944801   -5.19807  0.07%  13.6    0s
* 2241    47              20      -5.1947503   -5.19807  0.06%  13.5    0s
* 2242    47              20      -5.1948255   -5.19807  0.06%  13.5    0s
* 2245    47              20      -5.1948494   -5.19807  0.06%  13.5    0s
* 2406     7              24      -5.1949825   -5.19574  0.01%  12.7    0s
* 2411     7              24      -5.1949889   -5.19574  0.01%  12.6    0s
* 2473     3              23      -5.1950070   -5.19532  0.01%  12.4    0s

Cutting planes:
  RLT: 62
  BQP: 5
  PSD: 65

Explored 2502 nodes (31059 simplex iterations) in 0.72 seconds
Thread count was 32 (of 72 available processors)

Solution count 10: -5.19501 -5.19499 -5.19498 ... -5.19384

Optimal solution found (tolerance 1.00e-04)
Best objective -5.195007045289e+00, best bound -5.195026025633e+00, gap 0.0004%

User-callback calls 5325, time in user-callback 0.00 sec



objective value: -5.195007045289469
objective bound: -5.195026025632713
x_opt: [1.0, 0.0, 1.0, 0.0, 0.20705119410980352, 0.0, 1.0, 1.0, 0.44348114209787365, 9.464683620970012e-7, 0.0, 0.0, 0.811232125508513, 0.0, 0.45577090092092054, 0.3235299386774407, 0.0, 0.0, 0.0, 0.0]
GUROBI solution time: 0.7239160537719727




